NAME : XML100_3366_03
DIMENSION : 101
NB_CLUSTERS : 5
CLUSTERING_ALG : KMeans
CLUSTERING_PARAMS : k(4)
CLUSTERS
1 0
2 2 3 6 7 10 11 12 14 15 17 19 24 29 30 32 35 37 38 39 41 42 43 45 47 59 60 66 67 70 71 75 76 80 81 84 85 87 90 96 97 100
3 1 8 13 22 28 40 49 51 53 55 56 61 64 65 69 78 83 86 89 99
4 4 9 16 18 20 23 25 26 27 33 34 36 46 50 52 58 63 73 74 79 88 91 98
5 5 21 31 44 48 54 57 62 68 72 77 82 92 93 94 95
EOF